c FILE /home/rafael/Documents/HappySet/MIHS/inputs/happygen/output/graph_d_regular_k10_p0.1_v100_20241127_084110.txt
c SOURCE This is a d-regular graph formed for the happy graph colouring problem.
c DESCRIPTION It was generated using the problem generator of Rhyd Lewis
c
c GRAPH STATS
c Seed                             = 901544209
c Number of Nodes                  = 100
c Number of colours k              = 10
c Number of pre-assignments        = 10
c Degree of all vertices           = 6
c Density                          = 0.0606061
c 
c The degrees of nodes 1 to 100, respectively, are as follows 
c [6, 6, 6, 6, 6, 6, 6, 6, 6, 6, 6, 6, 6, 6, 6, 6, 6, 6, 6, 6, 6, 6, 6, 6, 6, 6, 
c  6, 6, 6, 6, 6, 6, 6, 6, 6, 6, 6, 6, 6, 6, 6, 6, 6, 6, 6, 6, 6, 6, 6, 6, 6, 
c  6, 6, 6, 6, 6, 6, 6, 6, 6, 6, 6, 6, 6, 6, 6, 6, 6, 6, 6, 6, 6, 6, 6, 6, 6, 
c  6, 6, 6, 6, 6, 6, 6, 6, 6, 6, 6, 6, 6, 6, 6, 6, 6, 6, 6, 6, 6, 6, 6, 6] 
c  
p edge 100 300 10
e 1 3
e 1 12
e 1 37
e 1 78
e 1 90
e 1 91
e 2 49
e 2 69
e 2 84
e 2 85
e 2 98
e 2 100
e 3 31
e 3 65
e 3 79
e 3 87
e 3 98
e 4 15
e 4 29
e 4 34
e 4 40
e 4 45
e 4 67
e 5 13
e 5 15
e 5 19
e 5 48
e 5 55
e 5 66
e 6 12
e 6 24
e 6 40
e 6 83
e 6 91
e 6 92
e 7 13
e 7 14
e 7 22
e 7 45
e 7 68
e 7 99
e 8 11
e 8 46
e 8 51
e 8 52
e 8 76
e 8 99
e 9 17
e 9 29
e 9 46
e 9 53
e 9 84
e 9 99
e 10 24
e 10 69
e 10 70
e 10 79
e 10 94
e 10 96
e 11 13
e 11 39
e 11 42
e 11 47
e 11 57
e 12 15
e 12 59
e 12 62
e 12 86
e 13 30
e 13 54
e 13 76
e 14 26
e 14 48
e 14 75
e 14 77
e 14 87
e 15 27
e 15 38
e 15 68
e 16 33
e 16 40
e 16 43
e 16 63
e 16 77
e 16 97
e 17 25
e 17 41
e 17 62
e 17 64
e 17 71
e 18 44
e 18 61
e 18 67
e 18 79
e 18 80
e 18 82
e 19 34
e 19 41
e 19 43
e 19 71
e 19 78
e 20 22
e 20 35
e 20 46
e 20 55
e 20 60
e 20 89
e 21 43
e 21 44
e 21 53
e 21 68
e 21 74
e 21 78
e 22 56
e 22 65
e 22 76
e 22 91
e 23 45
e 23 53
e 23 57
e 23 63
e 23 65
e 23 81
e 24 37
e 24 55
e 24 61
e 24 92
e 25 32
e 25 70
e 25 79
e 25 94
e 25 96
e 26 29
e 26 42
e 26 62
e 26 71
e 26 84
e 27 41
e 27 62
e 27 74
e 27 91
e 27 96
e 28 32
e 28 35
e 28 37
e 28 44
e 28 90
e 28 94
e 29 35
e 29 82
e 29 95
e 30 47
e 30 49
e 30 50
e 30 64
e 30 74
e 31 48
e 31 49
e 31 70
e 31 78
e 31 80
e 32 59
e 32 63
e 32 66
e 32 73
e 33 34
e 33 57
e 33 69
e 33 73
e 33 100
e 34 50
e 34 63
e 34 80
e 35 54
e 35 56
e 35 95
e 36 40
e 36 55
e 36 59
e 36 71
e 36 88
e 36 98
e 37 38
e 37 41
e 37 98
e 38 55
e 38 81
e 38 82
e 38 100
e 39 41
e 39 54
e 39 75
e 39 93
e 39 98
e 40 54
e 40 75
e 41 58
e 42 60
e 42 68
e 42 72
e 42 87
e 43 67
e 43 75
e 43 97
e 44 81
e 44 84
e 44 97
e 45 63
e 45 68
e 45 94
e 46 73
e 46 77
e 46 93
e 47 53
e 47 70
e 47 72
e 47 88
e 48 60
e 48 64
e 48 95
e 49 51
e 49 69
e 49 90
e 50 53
e 50 56
e 50 76
e 50 89
e 51 56
e 51 57
e 51 60
e 51 64
e 52 61
e 52 67
e 52 70
e 52 85
e 52 99
e 53 62
e 54 75
e 54 86
e 55 88
e 56 57
e 56 85
e 57 73
e 58 60
e 58 80
e 58 82
e 58 85
e 58 96
e 59 76
e 59 80
e 59 87
e 60 97
e 61 65
e 61 96
e 61 100
e 62 80
e 63 81
e 64 87
e 64 92
e 65 78
e 65 86
e 66 67
e 66 74
e 66 77
e 66 100
e 67 86
e 68 83
e 69 93
e 69 97
e 70 74
e 71 87
e 71 100
e 72 75
e 72 83
e 72 85
e 72 92
e 73 83
e 73 85
e 74 91
e 76 86
e 77 82
e 77 90
e 78 92
e 79 83
e 79 84
e 81 90
e 81 93
e 82 89
e 83 98
e 84 88
e 86 95
e 88 92
e 88 95
e 89 93
e 89 94
e 89 95
e 90 91
e 93 96
e 94 99
e 97 99
n 5 4
n 14 6
n 38 3
n 47 1
n 56 9
n 61 7
n 67 5
n 71 10
n 92 8
n 97 2
